!HF 6-31G
%output
Print[ P_Basis ] 2
Print[ P_MOs ] 1
end
*xyz 0 1
H 0.00000000000000 0.00000000000000 0.00000000000000
H 0.72996405294471 0.00000000000000 0.00000000000000
*